SCIP Status        : solving was interrupted [time limit reached]
Total Time         :    3600.00
  solving          :    3600.00
  presolving       :       0.29 (included in solving)
  reading          :       0.00
  copying          :       1.44 (60 #copies) (minimal 0.00, maximal 0.09, average 0.02)
Original Problem   :
  Problem name     : bbbenchmark/g05_100.7.cut
  Variables        : 101 (100 binary, 0 integer, 0 implicit integer, 1 continuous)
  Constraints      : 1 initial, 1 maximal
  Objective        : minimize, 1 non-zeros (abs.min = 1, abs.max = 1)
Presolved Problem  :
  Problem name     : t_bbbenchmark/g05_100.7.cut
  Variables        : 1952 (100 binary, 0 integer, 1839 implicit integer, 13 continuous)
  Constraints      : 1876 initial, 8377 maximal
  Objective        : minimize, 1 non-zeros (abs.min = 1, abs.max = 1)
  Nonzeros         : 8801 constraint, 202 clique table
Presolvers         :   ExecTime  SetupTime  Calls  FixedVars   AggrVars   ChgTypes  ChgBounds   AddHoles    DelCons    AddCons   ChgSides   ChgCoefs
  boundshift       :       0.00       0.00      0          0          0          0          0          0          0          0          0          0
  convertinttobin  :       0.00       0.00      0          0          0          0          0          0          0          0          0          0
  domcol           :       0.00       0.00      1          0          0          0          0          0          0          0          0          0
  dualagg          :       0.00       0.00      0          0          0          0          0          0          0          0          0          0
  dualcomp         :       0.00       0.00      1          0          0          0          0          0          0          0          0          0
  dualinfer        :       0.00       0.00      0          0          0          0          0          0          0          0          0          0
  dualsparsify     :       0.00       0.00      1          0          0          0          0          0          0          0          0          0
  gateextraction   :       0.00       0.00      0          0          0          0          0          0          0          0          0          0
  implics          :       0.00       0.00      2          0          0          0          0          0          0          0          0          0
  inttobinary      :       0.00       0.00      0          0          0          0          0          0          0          0          0          0
  qpkktref         :       0.00       0.00      0          0          0          0          0          0          0          0          0          0
  redvub           :       0.00       0.00      0          0          0          0          0          0          0          0          0          0
  sparsify         :       0.00       0.00      1          0          0          0          0          0          0          0          0          0
  stuffing         :       0.00       0.00      0          0          0          0          0          0          0          0          0          0
  trivial          :       0.00       0.00      4          0          0          0          0          0          0          0          0          0
  tworowbnd        :       0.00       0.00      0          0          0          0          0          0          0          0          0          0
  dualfix          :       0.00       0.00      4          0          0          0          0          0          0          0          0          0
  genvbounds       :       0.00       0.00      0          0          0          0          0          0          0          0          0          0
  probing          :       0.15       0.00      1          0          0          0          0          0          0          0          0          0
  pseudoobj        :       0.00       0.00      1          0          0          0          1          0          0          0          0          0
  symmetry         :       0.00       0.00      0          0          0          0          0          0          0          0          0          0
  vbounds          :       0.00       0.00      1          0          0          0          0          0          0          0          0          0
  varbound         :       0.00       0.00      2          0          0          0          0          0          0          0          0          0
  and              :       0.00       0.00      2          0          0          0          0          0          0          0          0          0
  linear           :       0.00       0.00      2          0          0          0          0          0          0          0          0          0
  logicor          :       0.00       0.00      0          0          0          0          0          0          0          0          0          0
  bounddisjunction :       0.00       0.00      0          0          0          0          0          0          0          0          0          0
  nonlinear        :       0.12       0.01      5          0          0          0          1          0          0       1875          0          0
  benders          :       0.00       0.00      0          0          0          0          0          0          0          0          0          0
  components       :       0.00       0.00      1          0          0          0          0          0          0          0          0          0
  root node        :          -          -      -          0          -          -         14          -          -          -          -          -
Constraints        :     Number  MaxNumber  #Separate #Propagate    #EnfoLP    #EnfoRelax  #EnfoPS    #Check   #ResProp    Cutoffs    DomReds       Cuts    Applied      Conss   Children
  benderslp        :          0          0          0          0      58068          0          0       4404          0          0          0          0          0          0          0
  integral         :          0          0          0          0      58068          0          0       4404          0          0       1467          0          0        882     114978
  varbound         :         12         12        191     486805          0          0          0         84          0          0      30311          0          0          0          0
  and              :       1839       1839      74059     537870          2          0          0         84     321712          6     774099       9586       9340          0          0
  linear           :         25+        30        191     537905          2          0          0         82        296          2     213130          0          0          0          0
  logicor          :          0+      6435          0      82814          0          0          0          0        157        281         43          0          0          0          0
  bounddisjunction :          0+       154          0      29539          0          0          0          0          0          7          1          0          0          0          0
  benders          :          0          0          0          0          2          0          0         41          0          0          0          0          0          0          0
  countsols        :          0          0          0          0          2          0          0         41          0          0          0          0          0          0          0
  components       :          0          0          0          0          0          0          0          0          0          0          0          0          0          0          0
Constraint Timings :  TotalTime  SetupTime   Separate  Propagate     EnfoLP     EnfoPS     EnfoRelax   Check    ResProp    SB-Prop
  benderslp        :       0.11       0.00       0.00       0.00       0.09       0.00       0.00       0.02       0.00       0.00
  integral         :      59.46       0.00       0.00       0.00      59.46       0.00       0.00       0.00       0.00       0.00
  varbound         :       0.61       0.00       0.00       0.61       0.00       0.00       0.00       0.00       0.00       0.00
  and              :      74.98       0.00      49.38      24.64       0.00       0.00       0.00       0.02       0.16       0.78
  linear           :       3.12       0.00       0.08       2.94       0.00       0.00       0.00       0.00       0.00       0.10
  logicor          :       4.60       0.00       0.00       4.58       0.00       0.00       0.00       0.00       0.00       0.02
  bounddisjunction :       0.34       0.00       0.00       0.34       0.00       0.00       0.00       0.00       0.00       0.00
  benders          :       0.00       0.00       0.00       0.00       0.00       0.00       0.00       0.00       0.00       0.00
  countsols        :       0.00       0.00       0.00       0.00       0.00       0.00       0.00       0.00       0.00       0.00
  components       :       0.10       0.00       0.00       0.10       0.00       0.00       0.00       0.00       0.00       0.00
Propagators        : #Propagate   #ResProp    Cutoffs    DomReds
  dualfix          :          4          0          0          0
  genvbounds       :          0          0          0          0
  nlobbt           :          0          0          0          0
  obbt             :          0          0          0          0
  probing          :          0          0          0          0
  pseudoobj        :     252497          2          0        562
  redcost          :     142173          0          0      50080
  rootredcost      :         16          0          0          0
  symmetry         :          0          0          0          0
  vbounds          :      68405          0          0          0
Propagator Timings :  TotalTime  SetupTime   Presolve  Propagate    ResProp    SB-Prop
  dualfix          :       0.00       0.00       0.00       0.00       0.00       0.00
  genvbounds       :       0.35       0.00       0.00       0.32       0.00       0.03
  nlobbt           :       0.00       0.00       0.00       0.00       0.00       0.00
  obbt             :       0.00       0.00       0.00       0.00       0.00       0.00
  probing          :       0.15       0.00       0.15       0.00       0.00       0.00
  pseudoobj        :       0.44       0.00       0.00       0.44       0.00       0.00
  redcost          :       9.12       0.00       0.00       9.12       0.00       0.00
  rootredcost      :       0.44       0.00       0.00       0.44       0.00       0.00
  symmetry         :       0.27       0.00       0.00       0.27       0.00       0.00
  vbounds          :       0.40       0.00       0.00       0.40       0.00       0.00
Conflict Analysis  :       Time      Calls    Success    DomReds  Conflicts   Literals    Reconvs ReconvLits   Dualrays   Nonzeros   LP Iters   (pool size: [10000,10000])
  propagation      :       0.00        294        232          -        265       61.1          0        0.0          -          -          -
  infeasible LP    :       0.01         15         15          -        562      146.5          0        0.0         23      170.5          0
  bound exceed. LP :      15.80       5205       4143          -      88484      109.1          0        0.0          0        0.0      35200
  strong branching :       0.00          0          0          -          0        0.0          0        0.0          -          -          0
  pseudo solution  :       0.00          0          0          -          0        0.0          0        0.0          -          -          -
  applied globally :       0.53          -          -          0      22168      120.6          -          -         23          -          -
  applied locally  :          -          -          -          0          0        0.0          -          -          0          -          -
Separators         :   ExecTime  SetupTime      Calls  RootCalls    Cutoffs    DomReds  FoundCuts ViaPoolAdd  DirectAdd    Applied ViaPoolApp  DirectApp      Conss
  cut pool         :       8.25          -      19306        223          -          -      38294    2389494          -          -          -          -          -    (maximal pool size:       4032)
  aggregation      :      76.25       0.00       5596        191          0          0        194        214          0         30         30          0          0
  > cmir           :          -          -          -          -          -          -          -        214          0         30         30          0          -
  > flowcover      :          -          -          -          -          -          -          -          0          0          0          0          0          -
  > knapsackcover  :          -          -          -          -          -          -          -          0          0          0          0          0          -
  cgmip            :       0.00       0.00          0          0          0          0          0          0          0          0          0          0          0
  clique           :       0.00       0.00        191        191          0          0          0          0          0          0          0          0          0
  closecuts        :       0.00       0.00          0          0          0          0          0          0          0          0          0          0          0
  convexproj       :       0.00       0.00          0          0          0          0          0          0          0          0          0          0          0
  disjunctive      :       0.00       0.00          0          0          0          0          0          0          0          0          0          0          0
  eccuts           :       0.00       0.00          0          0          0          0          0          0          0          0          0          0          0
  gauge            :       0.00       0.00          0          0          0          0          0          0          0          0          0          0          0
  gomory           :       0.00       0.00          0          0          0          0          0          0          0          0          0          0          0
  > gomorymi       :          -          -          -          -          -          -          -          0          0          0          0          0          -
  > strongcg       :          -          -          -          -          -          -          -          0          0          0          0          0          -
  impliedbounds    :       0.33       0.00       5596        191          0          0          7          0          0          0          0          0          0
  interlattice     :       0.75       0.00        150        150          0          0        150          0        150        149          0        149          0
  interminor       :       0.00       0.00          0          0          0          0          0          0          0          0          0          0          0
  intersub         :       0.12       0.00          5          5          0          0          1          0          1          1          0          1          0
  intobj           :       0.00       0.00          0          0          0          0          0          0          0          0          0          0          0
  mcf              :       0.00       0.00          1          1          0          0          0          0          0          0          0          0          0
  minor            :       0.01       0.00          0          0          0          0          0          0          0          0          0          0          0
  mixing           :       0.01       0.00       5596        191          0          0          0          0          0          0          0          0          0
  oddcycle         :       0.00       0.00          0          0          0          0          0          0          0          0          0          0          0
  rapidlearning    :       0.01       0.00          0          0          0          0          0          0          0          0          0          0          0
  rlt              :       0.00       0.00         10         10          0          0          0          0          0          0          0          0          0
  zerohalf         :      47.33       0.00       4744         20          0          0      38093    2389280          0     195915     195915          0          0
Cutselectors       :   ExecTime  SetupTime      Calls  RootCalls   Selected     Forced   Filtered  RootSelec   RootForc   RootFilt 
  hybrid           :       2.67       0.00      18217        189     205435          0    2193796        371          0          8
Pricers            :   ExecTime  SetupTime      Calls       Vars
  problem variables:       0.00          -          0          0
Branching Rules    :   ExecTime  SetupTime   BranchLP  BranchExt   BranchPS    Cutoffs    DomReds       Cuts      Conss   Children
  allfullstrong    :       0.00       0.00          0          0          0          0          0          0          0          0
  cloud            :       0.00       0.00          0          0          0          0          0          0          0          0
  distribution     :       0.00       0.00          0          0          0          0          0          0          0          0
  fullstrong       :       0.00       0.00          0          0          0          0          0          0          0          0
  inference        :       0.00       0.00          0          0          0          0          0          0          0          0
  leastinf         :       0.00       0.00          0          0          0          0          0          0          0          0
  lookahead        :       0.00       0.00          0          0          0          0          0          0          0          0
  mostinf          :       0.00       0.00          0          0          0          0          0          0          0          0
  multaggr         :       0.00       0.00          0          0          0          0          0          0          0          0
  nodereopt        :       0.00       0.00          0          0          0          0          0          0          0          0
  pscost           :       0.00       0.00          0          0          0          0          0          0          0          0
  random           :       0.00       0.00          0          0          0          0          0          0          0          0
  relpscost        :      59.23       0.00      58066          0          0          0       1467          0        882     114978
  vanillafullstrong:       0.00       0.00          0          0          0          0          0          0          0          0
Primal Heuristics  :   ExecTime  SetupTime      Calls      Found       Best
  LP solutions     :       0.00          -          -          2          2
  relax solutions  :       0.00          -          -          0          0
  pseudo solutions :       0.00          -          -          0          0
  strong branching :       0.03          -          -          0          0
  actconsdiving    :       0.00       0.00          0          0          0
  adaptivediving   :       4.62       0.00         28          0          0
  alns             :       2.35       0.00         24          7          7
  bound            :       0.00       0.00          0          0          0
  clique           :       0.00       0.00          1          0          0
  coefdiving       :       0.00       0.00          0          0          0
  completesol      :       0.00       0.00          0          0          0
  conflictdiving   :      77.91       0.00        473          0          0
  crossover        :       1.40       0.00          7          0          0
  dins             :       0.00       0.00          0          0          0
  distributiondivin:      78.00       0.00        299          0          0
  dps              :       0.00       0.00          0          0          0
  dualval          :       0.00       0.00          0          0          0
  farkasdiving     :       0.00       0.00          0          0          0
  feaspump         :       0.26       0.00          1          1          1
  fixandinfer      :       0.00       0.00          0          0          0
  fracdiving       :      66.02       0.00        406          0          0
  gins             :       0.10       0.00          0          0          0
  guideddiving     :      64.58       0.00        412          0          0
  indicator        :       0.06       0.00          0          0          0
  indicatordiving  :       0.00       0.00          0          0          0
  intdiving        :       0.00       0.00          0          0          0
  intshifting      :       0.33       0.00         41          0          0
  linesearchdiving :      63.53       0.00        389          0          0
  localbranching   :       0.00       0.00          0          0          0
  locks            :       0.01       0.00          1          0          0
  lpface           :       0.07       0.00          0          0          0
  mpec             :     327.39       0.00         11          5          5
  multistart       :       0.00       0.00          0          0          0
  mutation         :       0.00       0.00          0          0          0
  nlpdiving        :       6.48       0.00         10          0          0
  objpscostdiving  :      79.45       0.00         42         11          0
  octane           :       0.00       0.00          0          0          0
  ofins            :       0.08       0.00          0          0          0
  oneopt           :       0.12       0.00         21          0          0
  padm             :       0.00       0.00          0          0          0
  proximity        :       0.00       0.00          0          0          0
  pscostdiving     :      63.13       0.00        338          2          2
  randrounding     :       0.98       0.00       4359          0          0
  rens             :       0.00       0.00          0          0          0
  reoptsols        :       0.00       0.00          0          0          0
  repair           :       0.00       0.00          0          0          0
  rins             :       7.16       0.00         29          2          2
  rootsoldiving    :      58.04       0.00         35          3          0
  rounding         :       1.28       0.00       3732          0          0
  shiftandpropagate:       0.00       0.00          0          0          0
  shifting         :      38.99       0.00       7901          4          3
  simplerounding   :       0.04       0.00          0          0          0
  subnlp           :     116.59       0.00          0          0          0
  trivial          :       0.02       0.00          2          2          2
  trivialnegation  :       0.00       0.00          0          0          0
  trustregion      :       0.00       0.00          0          0          0
  trysol           :       0.04       0.00          0          0          0
  twoopt           :       0.00       0.00          0          0          0
  undercover       :       0.87       0.00          1          1          1
  vbounds          :       0.00       0.00          0          0          0
  veclendiving     :      65.34       0.00        472          0          0
  zeroobj          :       0.00       0.00          0          0          0
  zirounding       :       0.44       0.00       1000          0          0
  other solutions  :          -          -          -          0          -
Diving (single)    :      Calls      Nodes   LP Iters Backtracks  Conflicts   MinDepth   MaxDepth   AvgDepth  RoundSols  NLeafSols  MinSolDpt  MaxSolDpt  AvgSolDpt
  actconsdiving    :          0          -          -          -          -          -          -          -          -          -          -          -          -
  coefdiving       :          0          -          -          -          -          -          -          -          -          -          -          -          -
  conflictdiving   :        473      20167     650846        464      22855         52         85       63.3          0          -          -          -          -
  distributiondivin:        299      10545     540453        316       5275         48         67       54.7          0          -          -          -          -
  farkasdiving     :          0          -          -          -          -          -          -          -          -          -          -          -          -
  fracdiving       :        406      58925     534578        125       1067         63        608      165.8          0          -          -          -          -
  guideddiving     :        412      53488     533846         20        396         59        419      150.5          0          -          -          -          -
  indicatordiving  :          0          -          -          -          -          -          -          -          -          -          -          -          -
  linesearchdiving :        389      16784     536060        392      18819         50        108       62.6          0          -          -          -          -
  pscostdiving     :        338      16034     567744        351      10355         57         83       66.9          0          2         79         83       81.0
  veclendiving     :        472      19991     526975        465      26085         54         90       63.3          0          -          -          -          -
Diving (adaptive)  :      Calls      Nodes   LP Iters Backtracks  Conflicts   MinDepth   MaxDepth   AvgDepth  RoundSols  NLeafSols  MinSolDpt  MaxSolDpt  AvgSolDpt
  actconsdiving    :          3        119       5313          3         35         54         57       56.0          0          -          -          -          -
  coefdiving       :         10        455      13142          8        614         57         90       63.5          0          -          -          -          -
  conflictdiving   :          0          -          -          -          -          -          -          -          -          -          -          -          -
  distributiondivin:          0          -          -          -          -          -          -          -          -          -          -          -          -
  farkasdiving     :          0          -          -          -          -          -          -          -          -          -          -          -          -
  fracdiving       :          0          -          -          -          -          -          -          -          -          -          -          -          -
  guideddiving     :          3        350       4172          0          0        109        158      132.0          0          -          -          -          -
  indicatordiving  :          0          -          -          -          -          -          -          -          -          -          -          -          -
  linesearchdiving :          6        283      10025          5        349         59         75       64.5          0          -          -          -          -
  pscostdiving     :          2         73       2465          2         64         64         65       64.5          0          -          -          -          -
  veclendiving     :          4        174       4621          4        116         58         71       63.2          0          -          -          -          -
Neighborhoods      :      Calls  SetupTime  SolveTime SolveNodes       Sols       Best       Exp3  EpsGreedy        UCB TgtFixRate  Opt  Inf Node Stal  Sol  Usr Othr Actv
  rens             :          3       0.20       0.05          3          0          0    0.00000   -1.00000    0.53942      0.437    0    3    0    0    0    0    0    1
  rins             :          2       0.13       0.09         79          0          0    0.00000   -1.00000    0.47325      0.850    0    1    0    1    0    0    0    1
  mutation         :          4       0.14       0.39        311          2          2    0.00000   -1.00000    0.49127      0.672    0    2    0    2    0    0    0    1
  localbranching   :          4       0.15       0.20        261          1          1    0.00000   -1.00000    0.54400      0.897    0    1    0    3    0    0    0    1
  crossover        :          6       0.19       0.23        126          3          3    0.00000   -1.00000    0.53217      0.637    0    3    0    2    1    0    0    1
  proximity        :          2       0.09       0.16         73          0          0    0.00000   -1.00000    0.47425      0.850    0    1    0    1    0    0    0    1
  zeroobjective    :          2       0.03       0.11        141          1          1    0.00000   -1.00000    0.54105      0.850    1    0    0    1    0    0    0    1
  dins             :          1       0.00       0.00          0          0          0    0.00000   -1.00000    0.07176      0.900    0    0    0    0    0    0    1    1
  trustregion      :          0       0.00       0.00          0          0          0    0.00000   -1.00000    1.00000      0.900    0    0    0    0    0    0    0    0
Expressions        :   #IntEval  IntEvalTi   #RevProp  RevPropTi    DomReds    Cutoffs  #Estimate  EstimTime  Branching  #Simplify SimplifyTi Simplified
  pow              :          0       0.00          0       0.00          0          0          0       0.00          0          0       0.00          0
  prod             :       9900       0.00          0       0.00          0          0          0       0.00          0       6789       0.00          0
  sum              :          8       0.00          2       0.00          0          0          0       0.00          0          3       0.02          2
  var              :       6665       0.00          0       0.00          0          0          0       0.00          0      15732       0.00          0
  varidx           :          0       0.00          0       0.00          0          0          0       0.00          0          0       0.00          0
LP                 :       Time      Calls Iterations  Iter/call   Iter/sec  Time-0-It Calls-0-It    ItLimit
  primal LP        :     103.64       9072          0       0.00       0.00     103.58       9072
  dual LP          :    1973.34     118200   10413173      94.34    5276.93       3.76       7823
  lex dual LP      :       0.00          0          0       0.00          -
  barrier LP       :       0.00          0          0       0.00          -       0.00          0
  resolve instable :       0.00          0          0       0.00          -
  diving/probing LP:     546.25      13414    4577041     341.21    8379.02
  strong branching :      34.08       2316     287183     124.00    8426.73          -          -        304
    (at root node) :          -         19       5736     301.89          -
  conflict analysis:       6.21       3600      35200       9.78    5668.28
NLP relaxation     :
  solve time       :       6.46 (10 calls)
  convexity        :  nonconvex (37 linear rows, 0 convex ineq., 0 nonconvex ineq., 1839 nonlinear eq. or two-sided ineq.)
NLP Solvers        :  #Problems  ProblemTi    #Solves  SolveTime      #Iter  Time/Iter      #Okay #TimeLimit #IterLimit #LObjLimit #Interrupt  #NumError #EvalError  #OutOfMem #LicenseEr #OtherTerm   #GlobOpt    #LocOpt  #Feasible #LocInfeas #GlobInfea #Unbounded   #Unknown
  ipopt            :         12       4.95         42     336.90       1627       0.21         42          0          0          0          0          0          0          0          0          0          0         24          0          8          0          0         10
B&B Tree           :
  number of runs   :          1
  nodes            :      91596 (57489 internal, 34107 leaves)
  feasible leaves  :          2
  infeas. leaves   :         10
  objective leaves :      34094
  nodes (total)    :      91596 (57489 internal, 34107 leaves)
  nodes left       :      22965
  max depth        :         66
  max depth (total):         66
  backtracks       :      19210 (21.0%)
  early backtracks :          0 (0.0%)
  nodes exc. ref.  :          0 (0.0%)
  delayed cutoffs  :          0
  repropagations   :         70 (343 domain reductions, 0 cutoffs)
  avg switch length:       5.72
  switching time   :     124.85
Estim. Tree Size   :     184028
Estimation Tree    : 114979 nodes (92014 visited, 57489 internal, 34525 leaves, 22965 open), weight: 0.0000 completed 0.1175
Estimations        :      estim      value      trend resolution     smooth
  wbe              : 328283967897148          -          -          -          -
  tree-profile     :         -1          -          -          -          -
  gap              :    1255135    0.68724    0.00003         64    1281669
  tree-weight      :     184028    0.00000    0.00000         64     183795
  leaf-frequency   :     184028    0.37521   -0.00001         64     183958
  ssg              :    2883272    0.81450   -0.00004         64    2874060
  open-nodes       :     184028 22965.00000   61.07602         64     183795
Root Node          :
  First LP value   : -1.00000000000000e+00
  First LP Iters   :       1752 (17520.00 Iter/sec)
  First LP Time    :       0.10
  Final Dual Bound : -9.36517542171777e-01
  Final Root Iters :       4964
  Root LP Estimate : -3.32770593538743e-01
Solution           :
  Solutions found  :         40 (25 improvements)
  First Solution   : +1.00000000000000e+05   (in run 1, after 0 nodes, 0.05 seconds, depth 0, found by <trivial>)
  Gap First Sol.   :   infinite
  Gap Last Sol.    :      48.73 %
  Primal Bound     : -5.66868686868685e-01   (in run 1, after 47777 nodes, 1561.47 seconds, depth 20, found by <alns>)
  Dual Bound       : -8.24846795801149e-01
  Gap              :      45.51 %
Integrals          :      Total       Avg%
  primal-dual      :  123024.44      34.17
  primal-ref       :          -          - (not evaluated)
  dual-ref         :          -          - (not evaluated)
